p cnf 12 50 
-8 2 -7 0
-9 -12 -5 0
-8 9 -10 0
-8 5 -2 0
-4 9 5 0
-5 -2 -3 0
7 -11 9 0
-1 7 -6 0
-10 -3 -11 0
-2 -5 8 0
-9 -11 8 0
9 -1 -6 0
-8 2 4 0
4 -1 -12 0
5 -11 -1 0
-4 -6 -12 0
-12 5 -10 0
-3 -4 7 0
11 3 6 0
-12 -5 3 0
-8 -5 1 0
5 -2 -9 0
2 7 -12 0
-7 4 1 0
6 1 -5 0
-6 5 -2 0
-11 -3 -9 0
5 3 7 0
4 -7 8 0
-12 -3 10 0
-1 6 10 0
-4 6 -3 0
1 -11 2 0
-3 -4 1 0
-11 10 -12 0
-7 -5 -3 0
3 4 -9 0
11 3 -7 0
-7 -8 -1 0
3 -7 -4 0
-10 -1 3 0
-1 5 12 0
-9 2 12 0
-8 6 -4 0
4 -10 -6 0
9 -2 -8 0
-11 -6 8 0
1 11 -2 0
6 9 -7 0
-10 -4 1 0
